p edges 98 967
e 97 98 
e 96 98 
e 96 97 
e 95 98 
e 95 97 
e 95 96 
e 94 98 
e 94 97 
e 94 96 
e 94 95 
e 93 94 
e 92 96 
e 92 95 
e 92 94 
e 92 93 
e 91 98 
e 91 96 
e 91 95 
e 91 94 
e 91 93 
e 91 92 
e 90 92 
e 90 91 
e 89 96 
e 89 94 
e 89 91 
e 89 90 
e 88 93 
e 88 91 
e 88 90 
e 88 89 
e 87 94 
e 87 93 
e 87 92 
e 87 91 
e 87 90 
e 87 89 
e 87 88 
e 86 98 
e 86 97 
e 86 96 
e 86 95 
e 86 94 
e 86 93 
e 86 92 
e 86 91 
e 86 90 
e 86 89 
e 86 88 
e 86 87 
e 85 96 
e 85 94 
e 85 91 
e 85 89 
e 85 88 
e 85 87 
e 85 86 
e 84 94 
e 84 93 
e 84 88 
e 84 87 
e 84 86 
e 84 85 
e 83 97 
e 83 96 
e 83 95 
e 83 94 
e 83 93 
e 83 92 
e 83 91 
e 83 87 
e 83 86 
e 83 85 
e 83 84 
e 82 98 
e 82 97 
e 82 96 
e 82 95 
e 82 94 
e 82 91 
e 82 89 
e 82 86 
e 82 85 
e 82 84 
e 82 83 
e 81 88 
e 81 86 
e 81 85 
e 81 84 
e 81 83 
e 81 82 
e 80 93 
e 80 87 
e 80 85 
e 80 84 
e 80 83 
e 80 82 
e 80 81 
e 79 97 
e 79 96 
e 79 95 
e 79 94 
e 79 93 
e 79 86 
e 79 83 
e 79 82 
e 79 81 
e 79 80 
e 78 97 
e 78 85 
e 78 82 
e 78 81 
e 78 80 
e 78 79 
e 77 85 
e 77 84 
e 77 82 
e 77 81 
e 77 80 
e 77 79 
e 77 78 
e 76 95 
e 76 83 
e 76 81 
e 76 80 
e 76 79 
e 76 78 
e 76 77 
e 75 97 
e 75 82 
e 75 79 
e 75 78 
e 75 77 
e 75 76 
e 74 82 
e 74 81 
e 74 78 
e 74 77 
e 74 76 
e 74 75 
e 73 81 
e 73 80 
e 73 78 
e 73 77 
e 73 76 
e 73 75 
e 73 74 
e 72 79 
e 72 76 
e 72 75 
e 72 74 
e 72 73 
e 71 78 
e 71 75 
e 71 74 
e 71 73 
e 71 72 
e 70 77 
e 70 74 
e 70 73 
e 70 72 
e 70 71 
e 69 76 
e 69 75 
e 69 74 
e 69 73 
e 69 72 
e 69 71 
e 69 70 
e 68 80 
e 68 79 
e 68 77 
e 68 76 
e 68 75 
e 68 73 
e 68 72 
e 68 71 
e 68 70 
e 68 69 
e 67 73 
e 67 72 
e 67 71 
e 67 70 
e 67 69 
e 67 68 
e 66 69 
e 66 68 
e 66 67 
e 65 72 
e 65 71 
e 65 69 
e 65 68 
e 65 67 
e 65 66 
e 64 72 
e 64 69 
e 64 67 
e 64 66 
e 64 65 
e 63 75 
e 63 72 
e 63 71 
e 63 69 
e 63 68 
e 63 67 
e 63 66 
e 63 65 
e 63 64 
e 62 97 
e 62 79 
e 62 78 
e 62 76 
e 62 75 
e 62 74 
e 62 72 
e 62 71 
e 62 69 
e 62 68 
e 62 67 
e 62 65 
e 62 64 
e 62 63 
e 61 76 
e 61 73 
e 61 72 
e 61 71 
e 61 69 
e 61 68 
e 61 67 
e 61 66 
e 61 65 
e 61 64 
e 61 63 
e 61 62 
e 60 97 
e 60 95 
e 60 83 
e 60 80 
e 60 79 
e 60 78 
e 60 77 
e 60 76 
e 60 75 
e 60 73 
e 60 72 
e 60 71 
e 60 69 
e 60 68 
e 60 67 
e 60 62 
e 60 61 
e 59 97 
e 59 95 
e 59 83 
e 59 82 
e 59 79 
e 59 76 
e 59 75 
e 59 68 
e 59 64 
e 59 62 
e 59 61 
e 59 60 
e 58 68 
e 58 66 
e 58 64 
e 58 61 
e 58 60 
e 58 59 
e 57 76 
e 57 73 
e 57 72 
e 57 69 
e 57 68 
e 57 67 
e 57 66 
e 57 65 
e 57 64 
e 57 61 
e 57 60 
e 57 59 
e 57 58 
e 56 97 
e 56 95 
e 56 83 
e 56 80 
e 56 79 
e 56 77 
e 56 76 
e 56 75 
e 56 73 
e 56 72 
e 56 68 
e 56 61 
e 56 60 
e 56 59 
e 56 58 
e 56 57 
e 55 97 
e 55 95 
e 55 79 
e 55 76 
e 55 64 
e 55 60 
e 55 59 
e 55 58 
e 55 57 
e 55 56 
e 54 95 
e 54 59 
e 54 58 
e 54 57 
e 54 56 
e 54 55 
e 53 80 
e 53 76 
e 53 60 
e 53 57 
e 53 56 
e 53 55 
e 53 54 
e 52 97 
e 52 95 
e 52 93 
e 52 83 
e 52 80 
e 52 79 
e 52 76 
e 52 73 
e 52 68 
e 52 60 
e 52 59 
e 52 57 
e 52 56 
e 52 55 
e 52 54 
e 52 53 
e 51 95 
e 51 56 
e 51 55 
e 51 54 
e 51 53 
e 51 52 
e 50 97 
e 50 95 
e 50 94 
e 50 92 
e 50 83 
e 50 79 
e 50 59 
e 50 56 
e 50 55 
e 50 54 
e 50 53 
e 50 52 
e 50 51 
e 49 51 
e 49 50 
e 48 95 
e 48 94 
e 48 93 
e 48 92 
e 48 91 
e 48 50 
e 48 49 
e 47 93 
e 47 92 
e 47 50 
e 47 49 
e 47 48 
e 46 54 
e 46 53 
e 46 52 
e 46 51 
e 46 50 
e 46 49 
e 46 48 
e 46 47 
e 45 94 
e 45 93 
e 45 92 
e 45 87 
e 45 84 
e 45 83 
e 45 80 
e 45 52 
e 45 50 
e 45 48 
e 45 47 
e 45 46 
e 44 93 
e 44 53 
e 44 52 
e 44 47 
e 44 46 
e 44 45 
e 43 93 
e 43 83 
e 43 80 
e 43 79 
e 43 76 
e 43 60 
e 43 56 
e 43 54 
e 43 53 
e 43 52 
e 43 51 
e 43 50 
e 43 47 
e 43 46 
e 43 45 
e 43 44 
e 42 95 
e 42 94 
e 42 93 
e 42 87 
e 42 86 
e 42 84 
e 42 83 
e 42 81 
e 42 80 
e 42 79 
e 42 77 
e 42 76 
e 42 60 
e 42 56 
e 42 53 
e 42 52 
e 42 50 
e 42 45 
e 42 44 
e 42 43 
e 41 93 
e 41 87 
e 41 84 
e 41 83 
e 41 80 
e 41 47 
e 41 45 
e 41 44 
e 41 43 
e 41 42 
e 40 53 
e 40 52 
e 40 46 
e 40 45 
e 40 44 
e 40 43 
e 40 42 
e 40 41 
e 39 93 
e 39 87 
e 39 84 
e 39 83 
e 39 81 
e 39 80 
e 39 79 
e 39 77 
e 39 76 
e 39 73 
e 39 68 
e 39 60 
e 39 56 
e 39 53 
e 39 52 
e 39 45 
e 39 44 
e 39 43 
e 39 42 
e 39 41 
e 39 40 
e 38 81 
e 38 80 
e 38 77 
e 38 76 
e 38 73 
e 38 56 
e 38 42 
e 38 40 
e 38 39 
e 37 53 
e 37 43 
e 37 40 
e 37 39 
e 37 38 
e 36 56 
e 36 53 
e 36 52 
e 36 51 
e 36 46 
e 36 44 
e 36 43 
e 36 40 
e 36 39 
e 36 38 
e 36 37 
e 35 93 
e 35 83 
e 35 80 
e 35 79 
e 35 77 
e 35 76 
e 35 73 
e 35 68 
e 35 61 
e 35 60 
e 35 59 
e 35 57 
e 35 56 
e 35 55 
e 35 53 
e 35 52 
e 35 51 
e 35 50 
e 35 46 
e 35 44 
e 35 43 
e 35 42 
e 35 41 
e 35 40 
e 35 39 
e 35 38 
e 35 37 
e 35 36 
e 34 80 
e 34 77 
e 34 76 
e 34 73 
e 34 70 
e 34 68 
e 34 61 
e 34 60 
e 34 57 
e 34 56 
e 34 53 
e 34 52 
e 34 43 
e 34 42 
e 34 39 
e 34 38 
e 34 37 
e 34 36 
e 34 35 
e 33 57 
e 33 53 
e 33 43 
e 33 38 
e 33 37 
e 33 36 
e 33 35 
e 33 34 
e 32 76 
e 32 68 
e 32 61 
e 32 60 
e 32 58 
e 32 57 
e 32 56 
e 32 55 
e 32 54 
e 32 53 
e 32 52 
e 32 51 
e 32 46 
e 32 43 
e 32 39 
e 32 37 
e 32 36 
e 32 35 
e 32 34 
e 32 33 
e 31 80 
e 31 79 
e 31 77 
e 31 76 
e 31 73 
e 31 72 
e 31 70 
e 31 69 
e 31 68 
e 31 67 
e 31 66 
e 31 61 
e 31 60 
e 31 59 
e 31 58 
e 31 57 
e 31 56 
e 31 55 
e 31 53 
e 31 52 
e 31 43 
e 31 42 
e 31 39 
e 31 38 
e 31 36 
e 31 35 
e 31 34 
e 31 33 
e 31 32 
e 30 73 
e 30 68 
e 30 67 
e 30 57 
e 30 37 
e 30 34 
e 30 33 
e 30 32 
e 30 31 
e 29 57 
e 29 53 
e 29 37 
e 29 36 
e 29 34 
e 29 33 
e 29 32 
e 29 31 
e 29 30 
e 28 76 
e 28 68 
e 28 67 
e 28 66 
e 28 64 
e 28 61 
e 28 60 
e 28 58 
e 28 57 
e 28 56 
e 28 55 
e 28 54 
e 28 53 
e 28 35 
e 28 33 
e 28 32 
e 28 31 
e 28 30 
e 28 29 
e 27 73 
e 27 69 
e 27 68 
e 27 67 
e 27 66 
e 27 65 
e 27 61 
e 27 57 
e 27 34 
e 27 33 
e 27 32 
e 27 31 
e 27 30 
e 27 29 
e 27 28 
e 26 80 
e 26 77 
e 26 76 
e 26 73 
e 26 72 
e 26 70 
e 26 69 
e 26 68 
e 26 67 
e 26 61 
e 26 60 
e 26 57 
e 26 56 
e 26 39 
e 26 38 
e 26 37 
e 26 35 
e 26 34 
e 26 33 
e 26 32 
e 26 31 
e 26 30 
e 26 28 
e 26 27 
e 25 73 
e 25 72 
e 25 71 
e 25 70 
e 25 69 
e 25 68 
e 25 67 
e 25 66 
e 25 65 
e 25 63 
e 25 61 
e 25 57 
e 25 31 
e 25 30 
e 25 28 
e 25 27 
e 25 26 
e 24 73 
e 24 70 
e 24 69 
e 24 67 
e 24 26 
e 24 25 
e 23 69 
e 23 68 
e 23 67 
e 23 66 
e 23 65 
e 23 63 
e 23 30 
e 23 27 
e 23 26 
e 23 25 
e 23 24 
e 22 67 
e 22 30 
e 22 27 
e 22 25 
e 22 24 
e 22 23 
e 21 69 
e 21 67 
e 21 33 
e 21 30 
e 21 29 
e 21 27 
e 21 26 
e 21 25 
e 21 24 
e 21 23 
e 21 22 
e 20 76 
e 20 73 
e 20 70 
e 20 69 
e 20 68 
e 20 67 
e 20 60 
e 20 34 
e 20 31 
e 20 30 
e 20 27 
e 20 26 
e 20 25 
e 20 24 
e 20 23 
e 20 22 
e 20 21 
e 19 80 
e 19 77 
e 19 76 
e 19 73 
e 19 70 
e 19 68 
e 19 61 
e 19 60 
e 19 57 
e 19 56 
e 19 39 
e 19 38 
e 19 37 
e 19 36 
e 19 35 
e 19 34 
e 19 33 
e 19 32 
e 19 31 
e 19 30 
e 19 29 
e 19 27 
e 19 26 
e 19 25 
e 19 21 
e 19 20 
e 18 38 
e 18 37 
e 18 34 
e 18 33 
e 18 30 
e 18 26 
e 18 20 
e 18 19 
e 17 73 
e 17 70 
e 17 26 
e 17 24 
e 17 22 
e 17 20 
e 17 19 
e 17 18 
e 16 80 
e 16 77 
e 16 76 
e 16 74 
e 16 73 
e 16 72 
e 16 71 
e 16 70 
e 16 69 
e 16 68 
e 16 67 
e 16 61 
e 16 60 
e 16 57 
e 16 56 
e 16 39 
e 16 38 
e 16 35 
e 16 34 
e 16 31 
e 16 26 
e 16 25 
e 16 24 
e 16 23 
e 16 20 
e 16 19 
e 16 18 
e 16 17 
e 15 81 
e 15 80 
e 15 77 
e 15 76 
e 15 73 
e 15 70 
e 15 68 
e 15 56 
e 15 42 
e 15 39 
e 15 38 
e 15 37 
e 15 35 
e 15 34 
e 15 33 
e 15 31 
e 15 26 
e 15 20 
e 15 19 
e 15 18 
e 15 17 
e 15 16 
e 14 70 
e 14 38 
e 14 37 
e 14 34 
e 14 19 
e 14 18 
e 14 17 
e 14 16 
e 14 15 
e 13 77 
e 13 74 
e 13 73 
e 13 70 
e 13 24 
e 13 20 
e 13 18 
e 13 17 
e 13 16 
e 13 15 
e 13 14 
e 12 84 
e 12 81 
e 12 80 
e 12 78 
e 12 77 
e 12 76 
e 12 74 
e 12 73 
e 12 70 
e 12 42 
e 12 39 
e 12 38 
e 12 35 
e 12 34 
e 12 31 
e 12 26 
e 12 19 
e 12 17 
e 12 16 
e 12 15 
e 12 14 
e 12 13 
e 11 77 
e 11 39 
e 11 38 
e 11 37 
e 11 34 
e 11 19 
e 11 18 
e 11 16 
e 11 15 
e 11 14 
e 11 13 
e 11 12 
e 10 17 
e 10 14 
e 10 13 
e 10 12 
e 10 11 
e 9 81 
e 9 78 
e 9 77 
e 9 74 
e 9 73 
e 9 70 
e 9 16 
e 9 13 
e 9 12 
e 9 11 
e 9 10 
e 8 84 
e 8 81 
e 8 80 
e 8 77 
e 8 74 
e 8 39 
e 8 38 
e 8 15 
e 8 12 
e 8 11 
e 8 10 
e 8 9 
e 7 15 
e 7 14 
e 7 12 
e 7 11 
e 7 10 
e 7 9 
e 7 8 
e 6 13 
e 6 11 
e 6 10 
e 6 9 
e 6 8 
e 6 7 
e 5 81 
e 5 77 
e 5 12 
e 5 10 
e 5 9 
e 5 8 
e 5 7 
e 5 6 
e 4 11 
e 4 8 
e 4 7 
e 4 6 
e 4 5 
e 3 10 
e 3 9 
e 3 8 
e 3 7 
e 3 6 
e 3 5 
e 3 4 
e 2 14 
e 2 13 
e 2 11 
e 2 10 
e 2 9 
e 2 7 
e 2 6 
e 2 5 
e 2 4 
e 2 3 
e 1 10 
e 1 7 
e 1 6 
e 1 4 
e 1 3 
e 1 2 
